42 




































































































28 48 54 76 40 53 
30 34 3 58 23 0 
7 72 52 68 31 57 
75 46 61 55 71 36 
26 21 33 47 32 44 
66 49 29 67 8 20 
51 69 35 43 64 11 
18 37 73 17 22 
38 27 4 10 60 
19 12 5 6 62 1 
14 9 39 56 59 63 
50 70 15 16 24 45 

41 25 74 2 13 65 
